############################## T =  4
Academic license - for non-commercial use only
Changed value of parameter lazyConstraints to 1
   Prev: 0  Min: 0  Max: 1  Default: 0
Optimize a model with 773 rows, 48 columns and 2688 nonzeros
Model has 168 quadratic objective terms
Variable types: 0 continuous, 48 integer (48 binary)
Coefficient statistics:
  Matrix range     [1e+00, 1e+00]
  Objective range  [0e+00, 0e+00]
  QObjective range [3e+01, 2e+04]
  Bounds range     [1e+00, 1e+00]
  RHS range        [1e+00, 2e+00]
Found heuristic solution: objective 31282.000000
Presolve removed 153 rows and 8 columns
Presolve time: 0.01s
Presolved: 788 rows, 208 columns, 2512 nonzeros
Variable types: 0 continuous, 208 integer (208 binary)

Root relaxation: objective 0.000000e+00, 13 iterations, 0.00 seconds

    Nodes    |    Current Node    |     Objective Bounds      |     Work
 Expl Unexpl |  Obj  Depth IntInf | Incumbent    BestBd   Gap | It/Node Time

     0     0    0.00000    0    8 31282.0000    0.00000   100%     -    0s
H    0     0                    20821.000000    0.00000   100%     -    0s
     0     0    0.00000    0    8 20821.0000    0.00000   100%     -    0s
     0     0    0.00000    0   10 20821.0000    0.00000   100%     -    0s
H    0     0                    19118.000000    0.00000   100%     -    0s
     0     0    0.00000    0    8 19118.0000    0.00000   100%     -    0s
     0     0    0.00000    0    8 19118.0000    0.00000   100%     -    0s
     0     0    0.00000    0    8 19118.0000    0.00000   100%     -    0s
     0     0    0.00000    0    8 19118.0000    0.00000   100%     -    0s
     0     2    0.00000    0    8 19118.0000    0.00000   100%     -    0s
H  139    47                    19117.000000 2156.66667  88.7%   6.6    0s

Cutting planes:
  Gomory: 1
  Cover: 2
  MIR: 1
  Inf proof: 1
  Zero half: 6

Explored 612 nodes (3765 simplex iterations) in 0.39 seconds
Thread count was 4 (of 4 available processors)

Solution count 4: 19117 19118 20821 31282 

Optimal solution found (tolerance 1.00e-04)
Best objective 1.911700000000e+04, best bound 1.911700000000e+04, gap 0.0000%

Optimal cost: 19117
print out solution in ascending timestep
timestep  0 :  94378
timestep  1 :  91105
timestep  2 :  87572
timestep  3 :  87592
{(0, 0): 0.0, (0, 1): 0.0, (0, 2): 1.0, (0, 3): 1.0, (1, 0): 0.0, (1, 1): 0.0, (1, 2): 0.0, (1, 3): 1.0, (2, 0): 0.0, (2, 1): 0.0, (2, 2): 0.0, (2, 3): 1.0, (3, 0): 0.0, (3, 1): 1.0, (3, 2): 1.0, (3, 3): 1.0}
SOLVED AT T =  4
